15
2 1 2
3 1 17
4 0 11
5 0 26
5 4 21
6 1 40
6 5 21
7 1 4
7 3 31
7 5 12
7 6 38
8 0 11
8 3 6
8 4 20
9 0 29
9 2 20
9 3 37
9 4 31
9 5 39
10 0 33
10 1 9
10 2 4
10 3 9
10 5 15
10 6 37
10 7 7
10 8 7
10 9 26
11 3 15
11 6 1
11 8 41
11 10 8
12 2 38
12 3 32
12 5 13
12 7 11
12 8 15
12 11 29
13 0 21
13 5 23
13 7 15
13 10 5
13 12 13
14 0 24
14 1 19
14 4 1
14 6 15
14 7 16
14 10 9
14 13 28
